(set-logic QF_LRA)
(declare-fun T1 () Real )
(declare-fun T2 () Real )
(declare-fun T3 () Real )
(declare-fun T4 () Real )
(declare-fun T5 () Real )
(declare-fun T6 () Real )
(declare-fun T7 () Real )
(declare-fun T8 () Real )
(declare-fun Z () Real )
(assert ( and 
(or ( <= ( + T1 52 ) T2 ) ( <= ( + T2 69 ) T1 ) )
(or ( <= ( + T1 111 )  ( + T2 69 ) ) ( <= ( + T2 167 )( + T1 52 ) ) )
(or ( <= ( + T1 186 )  ( + T2 167 ) ) ( <= ( + T2 256 )( + T1 111 ) ) )
(or ( <= ( + T1 265 )  ( + T2 256 ) ) ( <= ( + T2 313 )( + T1 186 ) ) )
(or ( <= ( + T1 357 )  ( + T2 313 ) ) ( <= ( + T2 411 )( + T1 265 ) ) )
(or ( <= ( + T1 454 )  ( + T2 411 ) ) ( <= ( + T2 454 )( + T1 357 ) ) )
(or ( <= ( + T1 52 ) T3 ) ( <= ( + T3 100 ) T1 ) )
(or ( <= ( + T1 111 )  ( + T3 100 ) ) ( <= ( + T3 168 )( + T1 52 ) ) )
(or ( <= ( + T1 186 )  ( + T3 168 ) ) ( <= ( + T3 219 )( + T1 111 ) ) )
(or ( <= ( + T1 265 )  ( + T3 219 ) ) ( <= ( + T3 234 )( + T1 186 ) ) )
(or ( <= ( + T1 357 )  ( + T3 234 ) ) ( <= ( + T3 299 )( + T1 265 ) ) )
(or ( <= ( + T1 454 )  ( + T3 299 ) ) ( <= ( + T3 338 )( + T1 357 ) ) )
(or ( <= ( + T1 52 ) T4 ) ( <= ( + T4 70 ) T1 ) )
(or ( <= ( + T1 111 )  ( + T4 70 ) ) ( <= ( + T4 76 )( + T1 52 ) ) )
(or ( <= ( + T1 186 )  ( + T4 76 ) ) ( <= ( + T4 141 )( + T1 111 ) ) )
(or ( <= ( + T1 265 )  ( + T4 141 ) ) ( <= ( + T4 234 )( + T1 186 ) ) )
(or ( <= ( + T1 357 )  ( + T4 234 ) ) ( <= ( + T4 250 )( + T1 265 ) ) )
(or ( <= ( + T1 454 )  ( + T4 250 ) ) ( <= ( + T4 322 )( + T1 357 ) ) )
(or ( <= ( + T1 52 ) T5 ) ( <= ( + T5 71 ) T1 ) )
(or ( <= ( + T1 111 )  ( + T5 71 ) ) ( <= ( + T5 147 )( + T1 52 ) ) )
(or ( <= ( + T1 186 )  ( + T5 147 ) ) ( <= ( + T5 233 )( + T1 111 ) ) )
(or ( <= ( + T1 265 )  ( + T5 233 ) ) ( <= ( + T5 318 )( + T1 186 ) ) )
(or ( <= ( + T1 357 )  ( + T5 318 ) ) ( <= ( + T5 393 )( + T1 265 ) ) )
(or ( <= ( + T1 454 )  ( + T5 393 ) ) ( <= ( + T5 464 )( + T1 357 ) ) )
(or ( <= ( + T1 52 ) T6 ) ( <= ( + T6 13 ) T1 ) )
(or ( <= ( + T1 111 )  ( + T6 13 ) ) ( <= ( + T6 91 )( + T1 52 ) ) )
(or ( <= ( + T1 186 )  ( + T6 91 ) ) ( <= ( + T6 120 )( + T1 111 ) ) )
(or ( <= ( + T1 265 )  ( + T6 120 ) ) ( <= ( + T6 159 )( + T1 186 ) ) )
(or ( <= ( + T1 357 )  ( + T6 159 ) ) ( <= ( + T6 216 )( + T1 265 ) ) )
(or ( <= ( + T1 454 )  ( + T6 216 ) ) ( <= ( + T6 236 )( + T1 357 ) ) )
(or ( <= ( + T1 52 ) T7 ) ( <= ( + T7 35 ) T1 ) )
(or ( <= ( + T1 111 )  ( + T7 35 ) ) ( <= ( + T7 112 )( + T1 52 ) ) )
(or ( <= ( + T1 186 )  ( + T7 112 ) ) ( <= ( + T7 181 )( + T1 111 ) ) )
(or ( <= ( + T1 265 )  ( + T7 181 ) ) ( <= ( + T7 204 )( + T1 186 ) ) )
(or ( <= ( + T1 357 )  ( + T7 204 ) ) ( <= ( + T7 237 )( + T1 265 ) ) )
(or ( <= ( + T1 454 )  ( + T7 237 ) ) ( <= ( + T7 256 )( + T1 357 ) ) )
(or ( <= ( + T1 52 ) T8 ) ( <= ( + T8 17 ) T1 ) )
(or ( <= ( + T1 111 )  ( + T8 17 ) ) ( <= ( + T8 49 )( + T1 52 ) ) )
(or ( <= ( + T1 186 )  ( + T8 49 ) ) ( <= ( + T8 135 )( + T1 111 ) ) )
(or ( <= ( + T1 265 )  ( + T8 135 ) ) ( <= ( + T8 203 )( + T1 186 ) ) )
(or ( <= ( + T1 357 )  ( + T8 203 ) ) ( <= ( + T8 301 )( + T1 265 ) ) )
(or ( <= ( + T1 454 )  ( + T8 301 ) ) ( <= ( + T8 351 )( + T1 357 ) ) )
(or ( <= ( + T2 69 ) T3 ) ( <= ( + T3 100 ) T2 ) )
(or ( <= ( + T2 167 )  ( + T3 100 ) ) ( <= ( + T3 168 )( + T2 69 ) ) )
(or ( <= ( + T2 256 )  ( + T3 168 ) ) ( <= ( + T3 219 )( + T2 167 ) ) )
(or ( <= ( + T2 313 )  ( + T3 219 ) ) ( <= ( + T3 234 )( + T2 256 ) ) )
(or ( <= ( + T2 411 )  ( + T3 234 ) ) ( <= ( + T3 299 )( + T2 313 ) ) )
(or ( <= ( + T2 454 )  ( + T3 299 ) ) ( <= ( + T3 338 )( + T2 411 ) ) )
(or ( <= ( + T2 69 ) T4 ) ( <= ( + T4 70 ) T2 ) )
(or ( <= ( + T2 167 )  ( + T4 70 ) ) ( <= ( + T4 76 )( + T2 69 ) ) )
(or ( <= ( + T2 256 )  ( + T4 76 ) ) ( <= ( + T4 141 )( + T2 167 ) ) )
(or ( <= ( + T2 313 )  ( + T4 141 ) ) ( <= ( + T4 234 )( + T2 256 ) ) )
(or ( <= ( + T2 411 )  ( + T4 234 ) ) ( <= ( + T4 250 )( + T2 313 ) ) )
(or ( <= ( + T2 454 )  ( + T4 250 ) ) ( <= ( + T4 322 )( + T2 411 ) ) )
(or ( <= ( + T2 69 ) T5 ) ( <= ( + T5 71 ) T2 ) )
(or ( <= ( + T2 167 )  ( + T5 71 ) ) ( <= ( + T5 147 )( + T2 69 ) ) )
(or ( <= ( + T2 256 )  ( + T5 147 ) ) ( <= ( + T5 233 )( + T2 167 ) ) )
(or ( <= ( + T2 313 )  ( + T5 233 ) ) ( <= ( + T5 318 )( + T2 256 ) ) )
(or ( <= ( + T2 411 )  ( + T5 318 ) ) ( <= ( + T5 393 )( + T2 313 ) ) )
(or ( <= ( + T2 454 )  ( + T5 393 ) ) ( <= ( + T5 464 )( + T2 411 ) ) )
(or ( <= ( + T2 69 ) T6 ) ( <= ( + T6 13 ) T2 ) )
(or ( <= ( + T2 167 )  ( + T6 13 ) ) ( <= ( + T6 91 )( + T2 69 ) ) )
(or ( <= ( + T2 256 )  ( + T6 91 ) ) ( <= ( + T6 120 )( + T2 167 ) ) )
(or ( <= ( + T2 313 )  ( + T6 120 ) ) ( <= ( + T6 159 )( + T2 256 ) ) )
(or ( <= ( + T2 411 )  ( + T6 159 ) ) ( <= ( + T6 216 )( + T2 313 ) ) )
(or ( <= ( + T2 454 )  ( + T6 216 ) ) ( <= ( + T6 236 )( + T2 411 ) ) )
(or ( <= ( + T2 69 ) T7 ) ( <= ( + T7 35 ) T2 ) )
(or ( <= ( + T2 167 )  ( + T7 35 ) ) ( <= ( + T7 112 )( + T2 69 ) ) )
(or ( <= ( + T2 256 )  ( + T7 112 ) ) ( <= ( + T7 181 )( + T2 167 ) ) )
(or ( <= ( + T2 313 )  ( + T7 181 ) ) ( <= ( + T7 204 )( + T2 256 ) ) )
(or ( <= ( + T2 411 )  ( + T7 204 ) ) ( <= ( + T7 237 )( + T2 313 ) ) )
(or ( <= ( + T2 454 )  ( + T7 237 ) ) ( <= ( + T7 256 )( + T2 411 ) ) )
(or ( <= ( + T2 69 ) T8 ) ( <= ( + T8 17 ) T2 ) )
(or ( <= ( + T2 167 )  ( + T8 17 ) ) ( <= ( + T8 49 )( + T2 69 ) ) )
(or ( <= ( + T2 256 )  ( + T8 49 ) ) ( <= ( + T8 135 )( + T2 167 ) ) )
(or ( <= ( + T2 313 )  ( + T8 135 ) ) ( <= ( + T8 203 )( + T2 256 ) ) )
(or ( <= ( + T2 411 )  ( + T8 203 ) ) ( <= ( + T8 301 )( + T2 313 ) ) )
(or ( <= ( + T2 454 )  ( + T8 301 ) ) ( <= ( + T8 351 )( + T2 411 ) ) )
(or ( <= ( + T3 100 ) T4 ) ( <= ( + T4 70 ) T3 ) )
(or ( <= ( + T3 168 )  ( + T4 70 ) ) ( <= ( + T4 76 )( + T3 100 ) ) )
(or ( <= ( + T3 219 )  ( + T4 76 ) ) ( <= ( + T4 141 )( + T3 168 ) ) )
(or ( <= ( + T3 234 )  ( + T4 141 ) ) ( <= ( + T4 234 )( + T3 219 ) ) )
(or ( <= ( + T3 299 )  ( + T4 234 ) ) ( <= ( + T4 250 )( + T3 234 ) ) )
(or ( <= ( + T3 338 )  ( + T4 250 ) ) ( <= ( + T4 322 )( + T3 299 ) ) )
(or ( <= ( + T3 100 ) T5 ) ( <= ( + T5 71 ) T3 ) )
(or ( <= ( + T3 168 )  ( + T5 71 ) ) ( <= ( + T5 147 )( + T3 100 ) ) )
(or ( <= ( + T3 219 )  ( + T5 147 ) ) ( <= ( + T5 233 )( + T3 168 ) ) )
(or ( <= ( + T3 234 )  ( + T5 233 ) ) ( <= ( + T5 318 )( + T3 219 ) ) )
(or ( <= ( + T3 299 )  ( + T5 318 ) ) ( <= ( + T5 393 )( + T3 234 ) ) )
(or ( <= ( + T3 338 )  ( + T5 393 ) ) ( <= ( + T5 464 )( + T3 299 ) ) )
(or ( <= ( + T3 100 ) T6 ) ( <= ( + T6 13 ) T3 ) )
(or ( <= ( + T3 168 )  ( + T6 13 ) ) ( <= ( + T6 91 )( + T3 100 ) ) )
(or ( <= ( + T3 219 )  ( + T6 91 ) ) ( <= ( + T6 120 )( + T3 168 ) ) )
(or ( <= ( + T3 234 )  ( + T6 120 ) ) ( <= ( + T6 159 )( + T3 219 ) ) )
(or ( <= ( + T3 299 )  ( + T6 159 ) ) ( <= ( + T6 216 )( + T3 234 ) ) )
(or ( <= ( + T3 338 )  ( + T6 216 ) ) ( <= ( + T6 236 )( + T3 299 ) ) )
(or ( <= ( + T3 100 ) T7 ) ( <= ( + T7 35 ) T3 ) )
(or ( <= ( + T3 168 )  ( + T7 35 ) ) ( <= ( + T7 112 )( + T3 100 ) ) )
(or ( <= ( + T3 219 )  ( + T7 112 ) ) ( <= ( + T7 181 )( + T3 168 ) ) )
(or ( <= ( + T3 234 )  ( + T7 181 ) ) ( <= ( + T7 204 )( + T3 219 ) ) )
(or ( <= ( + T3 299 )  ( + T7 204 ) ) ( <= ( + T7 237 )( + T3 234 ) ) )
(or ( <= ( + T3 338 )  ( + T7 237 ) ) ( <= ( + T7 256 )( + T3 299 ) ) )
(or ( <= ( + T3 100 ) T8 ) ( <= ( + T8 17 ) T3 ) )
(or ( <= ( + T3 168 )  ( + T8 17 ) ) ( <= ( + T8 49 )( + T3 100 ) ) )
(or ( <= ( + T3 219 )  ( + T8 49 ) ) ( <= ( + T8 135 )( + T3 168 ) ) )
(or ( <= ( + T3 234 )  ( + T8 135 ) ) ( <= ( + T8 203 )( + T3 219 ) ) )
(or ( <= ( + T3 299 )  ( + T8 203 ) ) ( <= ( + T8 301 )( + T3 234 ) ) )
(or ( <= ( + T3 338 )  ( + T8 301 ) ) ( <= ( + T8 351 )( + T3 299 ) ) )
(or ( <= ( + T4 70 ) T5 ) ( <= ( + T5 71 ) T4 ) )
(or ( <= ( + T4 76 )  ( + T5 71 ) ) ( <= ( + T5 147 )( + T4 70 ) ) )
(or ( <= ( + T4 141 )  ( + T5 147 ) ) ( <= ( + T5 233 )( + T4 76 ) ) )
(or ( <= ( + T4 234 )  ( + T5 233 ) ) ( <= ( + T5 318 )( + T4 141 ) ) )
(or ( <= ( + T4 250 )  ( + T5 318 ) ) ( <= ( + T5 393 )( + T4 234 ) ) )
(or ( <= ( + T4 322 )  ( + T5 393 ) ) ( <= ( + T5 464 )( + T4 250 ) ) )
(or ( <= ( + T4 70 ) T6 ) ( <= ( + T6 13 ) T4 ) )
(or ( <= ( + T4 76 )  ( + T6 13 ) ) ( <= ( + T6 91 )( + T4 70 ) ) )
(or ( <= ( + T4 141 )  ( + T6 91 ) ) ( <= ( + T6 120 )( + T4 76 ) ) )
(or ( <= ( + T4 234 )  ( + T6 120 ) ) ( <= ( + T6 159 )( + T4 141 ) ) )
(or ( <= ( + T4 250 )  ( + T6 159 ) ) ( <= ( + T6 216 )( + T4 234 ) ) )
(or ( <= ( + T4 322 )  ( + T6 216 ) ) ( <= ( + T6 236 )( + T4 250 ) ) )
(or ( <= ( + T4 70 ) T7 ) ( <= ( + T7 35 ) T4 ) )
(or ( <= ( + T4 76 )  ( + T7 35 ) ) ( <= ( + T7 112 )( + T4 70 ) ) )
(or ( <= ( + T4 141 )  ( + T7 112 ) ) ( <= ( + T7 181 )( + T4 76 ) ) )
(or ( <= ( + T4 234 )  ( + T7 181 ) ) ( <= ( + T7 204 )( + T4 141 ) ) )
(or ( <= ( + T4 250 )  ( + T7 204 ) ) ( <= ( + T7 237 )( + T4 234 ) ) )
(or ( <= ( + T4 322 )  ( + T7 237 ) ) ( <= ( + T7 256 )( + T4 250 ) ) )
(or ( <= ( + T4 70 ) T8 ) ( <= ( + T8 17 ) T4 ) )
(or ( <= ( + T4 76 )  ( + T8 17 ) ) ( <= ( + T8 49 )( + T4 70 ) ) )
(or ( <= ( + T4 141 )  ( + T8 49 ) ) ( <= ( + T8 135 )( + T4 76 ) ) )
(or ( <= ( + T4 234 )  ( + T8 135 ) ) ( <= ( + T8 203 )( + T4 141 ) ) )
(or ( <= ( + T4 250 )  ( + T8 203 ) ) ( <= ( + T8 301 )( + T4 234 ) ) )
(or ( <= ( + T4 322 )  ( + T8 301 ) ) ( <= ( + T8 351 )( + T4 250 ) ) )
(or ( <= ( + T5 71 ) T6 ) ( <= ( + T6 13 ) T5 ) )
(or ( <= ( + T5 147 )  ( + T6 13 ) ) ( <= ( + T6 91 )( + T5 71 ) ) )
(or ( <= ( + T5 233 )  ( + T6 91 ) ) ( <= ( + T6 120 )( + T5 147 ) ) )
(or ( <= ( + T5 318 )  ( + T6 120 ) ) ( <= ( + T6 159 )( + T5 233 ) ) )
(or ( <= ( + T5 393 )  ( + T6 159 ) ) ( <= ( + T6 216 )( + T5 318 ) ) )
(or ( <= ( + T5 464 )  ( + T6 216 ) ) ( <= ( + T6 236 )( + T5 393 ) ) )
(or ( <= ( + T5 71 ) T7 ) ( <= ( + T7 35 ) T5 ) )
(or ( <= ( + T5 147 )  ( + T7 35 ) ) ( <= ( + T7 112 )( + T5 71 ) ) )
(or ( <= ( + T5 233 )  ( + T7 112 ) ) ( <= ( + T7 181 )( + T5 147 ) ) )
(or ( <= ( + T5 318 )  ( + T7 181 ) ) ( <= ( + T7 204 )( + T5 233 ) ) )
(or ( <= ( + T5 393 )  ( + T7 204 ) ) ( <= ( + T7 237 )( + T5 318 ) ) )
(or ( <= ( + T5 464 )  ( + T7 237 ) ) ( <= ( + T7 256 )( + T5 393 ) ) )
(or ( <= ( + T5 71 ) T8 ) ( <= ( + T8 17 ) T5 ) )
(or ( <= ( + T5 147 )  ( + T8 17 ) ) ( <= ( + T8 49 )( + T5 71 ) ) )
(or ( <= ( + T5 233 )  ( + T8 49 ) ) ( <= ( + T8 135 )( + T5 147 ) ) )
(or ( <= ( + T5 318 )  ( + T8 135 ) ) ( <= ( + T8 203 )( + T5 233 ) ) )
(or ( <= ( + T5 393 )  ( + T8 203 ) ) ( <= ( + T8 301 )( + T5 318 ) ) )
(or ( <= ( + T5 464 )  ( + T8 301 ) ) ( <= ( + T8 351 )( + T5 393 ) ) )
(or ( <= ( + T6 13 ) T7 ) ( <= ( + T7 35 ) T6 ) )
(or ( <= ( + T6 91 )  ( + T7 35 ) ) ( <= ( + T7 112 )( + T6 13 ) ) )
(or ( <= ( + T6 120 )  ( + T7 112 ) ) ( <= ( + T7 181 )( + T6 91 ) ) )
(or ( <= ( + T6 159 )  ( + T7 181 ) ) ( <= ( + T7 204 )( + T6 120 ) ) )
(or ( <= ( + T6 216 )  ( + T7 204 ) ) ( <= ( + T7 237 )( + T6 159 ) ) )
(or ( <= ( + T6 236 )  ( + T7 237 ) ) ( <= ( + T7 256 )( + T6 216 ) ) )
(or ( <= ( + T6 13 ) T8 ) ( <= ( + T8 17 ) T6 ) )
(or ( <= ( + T6 91 )  ( + T8 17 ) ) ( <= ( + T8 49 )( + T6 13 ) ) )
(or ( <= ( + T6 120 )  ( + T8 49 ) ) ( <= ( + T8 135 )( + T6 91 ) ) )
(or ( <= ( + T6 159 )  ( + T8 135 ) ) ( <= ( + T8 203 )( + T6 120 ) ) )
(or ( <= ( + T6 216 )  ( + T8 203 ) ) ( <= ( + T8 301 )( + T6 159 ) ) )
(or ( <= ( + T6 236 )  ( + T8 301 ) ) ( <= ( + T8 351 )( + T6 216 ) ) )
(or ( <= ( + T7 35 ) T8 ) ( <= ( + T8 17 ) T7 ) )
(or ( <= ( + T7 112 )  ( + T8 17 ) ) ( <= ( + T8 49 )( + T7 35 ) ) )
(or ( <= ( + T7 181 )  ( + T8 49 ) ) ( <= ( + T8 135 )( + T7 112 ) ) )
(or ( <= ( + T7 204 )  ( + T8 135 ) ) ( <= ( + T8 203 )( + T7 181 ) ) )
(or ( <= ( + T7 237 )  ( + T8 203 ) ) ( <= ( + T8 301 )( + T7 204 ) ) )
(or ( <= ( + T7 256 )  ( + T8 301 ) ) ( <= ( + T8 351 )( + T7 237 ) ) )
( <= ( + T1 454 ) Z)
( <= ( + T2 454 ) Z)
( <= ( + T3 338 ) Z)
( <= ( + T4 322 ) Z)
( <= ( + T5 464 ) Z)
( <= ( + T6 236 ) Z)
( <= ( + T7 256 ) Z)
( <= ( + T8 351 ) Z)
( >= T1 0 )
( >= T2 0 )
( >= T3 0 )
( >= T4 0 )
( >= T5 0 )
( >= T6 0 )
( >= T7 0 )
( >= T8 0 )
) )
(minimize Z)
(check-sat)